################################### BASE CASE ##################################

network_design.mod, line 27 (offset 808):
	DELIVS is not defined
context:  sum{(s,d) in  >>> DELIVS, <<<  (i,k) in ARCS} x_num_units[s,d,i,k] 	# incoming units
ampl: include network_design.run;
################################### BASE CASE ##################################

network_design.mod, line 78 (offset 2470):
	x_num_units is not defined
context:   >>> + <<<  sum{(k,d) in DELIVS} volume[k,d];						# plus units from a source
ampl: include network_design.run;
################################### BASE CASE ##################################

network_design.mod, line 94 (offset 3004):
	variable in = expression
context:  + sum{(k,d) in DELIVS}  >>> volume[k,d]; <<< 						# plus units from a source
ampl: include network_design.run;
################################### BASE CASE ##################################
CPLEX 12.6.3.0: mipdisplay=2
mipgap=1e-8
MIP Presolve modified 20 coefficients.
Reduced MIP has 82 rows, 119 columns, and 367 nonzeros.
Reduced MIP has 44 binaries, 75 generals, 0 SOSs, and 0 indicators.
Found incumbent of value 159219.184735 after 0.02 sec. (0.42 ticks)
Probing time = 0.00 sec. (0.03 ticks)
Reduced MIP has 82 rows, 119 columns, and 367 nonzeros.
Reduced MIP has 44 binaries, 75 generals, 0 SOSs, and 0 indicators.
Probing time = 0.00 sec. (0.03 ticks)
Clique table members: 27.
MIP emphasis: balance optimality and feasibility.
MIP search method: dynamic search.
Parallel mode: deterministic, using up to 4 threads.
Root relaxation solution time = 0.00 sec. (0.20 ticks)

        Nodes                                         Cuts/
   Node  Left     Objective  IInf  Best Integer    Best Bound    ItCnt     Gap

*     0+    0                       159219.1847    -3737.7112           102.35%
*     0+    0                        42330.2470    -3737.7112           108.83%
      0     0        0.0000     2    42330.2470        0.0000       18  100.00%
*     0+    0                            0.0000        0.0000             0.00%
      0     0        cutoff              0.0000        0.0000       18    0.00%
Elapsed time = 0.03 sec. (1.14 ticks, tree = 0.01 MB)

Root node processing (before b&c):
  Real time             =    0.03 sec. (1.14 ticks)
Parallel b&c, 4 threads:
  Real time             =    0.00 sec. (0.00 ticks)
  Sync time (average)   =    0.00 sec.
  Wait time (average)   =    0.00 sec.
                          ------------
Total (root+branch&cut) =    0.03 sec. (1.14 ticks)
CPLEX 12.6.3.0: optimal integer solution; objective 0
18 MIP simplex iterations
0 branch-and-bound nodes
No basis.

Number of reloading buildings at each station:
x_num_reload_bldg [*] :=
1  1
2  1
3  2
4  3
5  2
6  2
7  3
;

Line exists between stations i and j:
x_line_exist :=
1 2   0
1 3   1
1 4   1
1 5   0
1 6   0
2 3   0
2 5   1
2 7   0
3 4   0
3 5   1
3 6   0
3 7   0
4 5   0
4 6   1
5 6   0
5 7   1
6 7   1
;

Number of tracks from station i to station j:
x_num_tracks [*,*]
:   1   2   3   4   5   6   7    :=
1   .   0   1   0   0   0   .
2   0   .   0   .   0   .   0
3   0   0   .   0   1   0   0
4   1   .   0   .   0   1   .
5   0   1   0   0   .   0   1
6   0   .   0   0   0   .   1
7   .   0   0   .   0   0   .
;

Number of units of shipment from station s to station d that go on arc (i,j):
x_num_units [3,2,*,*]
:   1   2   3   4   5   6   7    :=
1   .   0   0   0   0   0   .
2   0   .   0   .   0   .   0
3   0   0   .   0   3   0   0
4   0   .   0   .   0   0   .
5   0   3   0   0   .   0   0
6   0   .   0   0   0   .   0
7   .   0   0   .   0   0   .

 [4,7,*,*]
:   1   2   3   4   5   6    7     :=
1   .   0   1   0   0    0   .
2   0   .   0   .   0   .     0
3   0   0   .   0   1    0    0
4   1   .   0   .   0   10   .
5   0   0   0   0   .    0    1
6   0   .   0   0   0   .    10
7   .   0   0   .   0    0   .
;

################################### SCENARIO 1 #################################
CPLEX 12.6.3.0: mipdisplay=2
mipgap=1e-8
MIP Presolve modified 20 coefficients.
Reduced MIP has 89 rows, 153 columns, and 503 nonzeros.
Reduced MIP has 10 binaries, 143 generals, 0 SOSs, and 0 indicators.
Found incumbent of value 458036.650327 after 0.02 sec. (0.52 ticks)
Probing time = 0.00 sec. (0.01 ticks)
Reduced MIP has 89 rows, 153 columns, and 503 nonzeros.
Reduced MIP has 10 binaries, 143 generals, 0 SOSs, and 0 indicators.
Probing time = 0.00 sec. (0.01 ticks)
MIP emphasis: balance optimality and feasibility.
MIP search method: dynamic search.
Parallel mode: deterministic, using up to 4 threads.
Root relaxation solution time = 0.00 sec. (0.39 ticks)

        Nodes                                         Cuts/
   Node  Left     Objective  IInf  Best Integer    Best Bound    ItCnt     Gap

*     0+    0                       458036.6503    -3737.7112           100.82%
*     0+    0                       332550.4057    -3737.7112           101.12%
*     0+    0                       241550.4057    -3737.7112           101.55%
      0     0     2577.6530    12   241550.4057     2577.6530       46   98.93%
*     0+    0                         6946.1142     2577.6530            62.89%
      0     0     2719.2216    34     6946.1142      Cuts: 20       63   60.85%
      0     0     3182.7821    39     6946.1142      Cuts: 37       81   54.18%
*     0+    0                         6370.4375     3182.7821            50.04%
      0     0     3345.6337    31     6370.4375      Cuts: 14       90   47.48%
      0     0     3443.9872    15     6370.4375      Cuts: 15       97   45.94%
      0     0     3470.3063    30     6370.4375       Cuts: 8      102   45.52%
      0     0     3471.1796    35     6370.4375       Cuts: 4      108   45.51%
      0     0     3476.6336    38     6370.4375       Cuts: 4      113   45.43%
      0     0     3484.8725    44     6370.4375       Cuts: 5      119   45.30%
      0     0     3545.7464    47     6370.4375       Cuts: 7      135   44.34%
      0     0     3678.3410    28     6370.4375      Cuts: 14      150   42.26%
      0     0     3726.5356    44     6370.4375      Cuts: 19      163   41.50%
      0     0     3761.0938    44     6370.4375      Cuts: 13      174   40.96%
      0     0     3922.7894    38     6370.4375      Cuts: 14      192   38.42%
      0     0     3925.4733    39     6370.4375       Cuts: 5      195   38.38%
      0     0     3928.6487    19     6370.4375       Cuts: 3      198   38.33%
      0     0     3945.2431    34     6370.4375   ZeroHalf: 4      203   38.07%
      0     0     3960.9696    39     6370.4375       Cuts: 4      207   37.82%
      0     0     3969.1344    40     6370.4375       Cuts: 3      213   37.69%
      0     0     4005.0654    18     6370.4375       Cuts: 7      218   37.13%
      0     0     4018.3543    42     6370.4375       Cuts: 8      228   36.92%
      0     0     4045.6936    40     6370.4375      Cuts: 10      237   36.49%
      0     0     4050.6240    43     6370.4375       Cuts: 3      239   36.42%
      0     0     4054.0535    44     6370.4375   ZeroHalf: 4      242   36.36%
      0     0     4059.2646    48     6370.4375   ZeroHalf: 2      247   36.28%
      0     0     4062.5143    56     6370.4375       Cuts: 3      255   36.23%
      0     0     4069.2477    47     6370.4375       Cuts: 7      265   36.12%
      0     0     4083.0573    49     6370.4375       Cuts: 3      272   35.91%
      0     0     4095.0766    50     6370.4375       Cuts: 3      276   35.72%
      0     0     4104.6742    48     6370.4375       Cuts: 5      283   35.57%
      0     0     4118.4880    33     6370.4375       Cuts: 3      287   35.35%
      0     0     4118.6104    36     6370.4375       Cuts: 2      289   35.35%
      0     0     4127.7361    46     6370.4375   ZeroHalf: 3      294   35.20%
      0     0     4136.2301    43     6370.4375       Cuts: 8      300   35.07%
*     0+    0                         4697.0563     4136.2301            11.94%
      0     0        cutoff           4697.0563     4697.0563      300    0.00%
Elapsed time = 0.16 sec. (31.40 ticks, tree = 0.01 MB)

Flow cuts applied:  10
Mixed integer rounding cuts applied:  13
Flow path cuts applied:  1
Zero-half cuts applied:  3
Multi commodity flow cuts applied:  9
Lift and project cuts applied:  1

Root node processing (before b&c):
  Real time             =    0.16 sec. (31.40 ticks)
Parallel b&c, 4 threads:
  Real time             =    0.00 sec. (0.00 ticks)
  Sync time (average)   =    0.00 sec.
  Wait time (average)   =    0.00 sec.
                          ------------
Total (root+branch&cut) =    0.16 sec. (31.40 ticks)
CPLEX 12.6.3.0: optimal integer solution; objective 4697.056275
300 MIP simplex iterations
0 branch-and-bound nodes
No basis.

Number of reloading buildings at each station:
x_num_reload_bldg [*] :=
1  1
2  2
3  2
4  3
5  3
6  3
7  3
;

Line exists between stations i and j:
x_line_exist :=
1 2   0
1 3   1
1 4   1
1 5   0
1 6   0
2 3   0
2 5   1
2 7   0
3 4   0
3 5   1
3 6   0
3 7   0
4 5   0
4 6   1
5 6   1
5 7   1
6 7   1
;

Number of tracks from station i to station j:
x_num_tracks [*,*]
:   1   2   3   4   5   6   7    :=
1   .   0   1   0   0   0   .
2   0   .   0   .   0   .   0
3   0   0   .   0   1   0   0
4   1   .   0   .   0   1   .
5   0   1   0   0   .   0   1
6   0   .   0   0   1   .   1
7   .   0   0   .   0   0   .
;

Number of units of shipment from station s to station d that go on arc (i,j):
x_num_units [3,2,*,*]
:   1   2   3   4   5   6   7    :=
1   .   0   0   0   0   0   .
2   0   .   0   .   0   .   0
3   0   0   .   0   3   0   0
4   0   .   0   .   0   0   .
5   0   3   0   0   .   0   0
6   0   .   0   0   0   .   0
7   .   0   0   .   0   0   .

 [4,7,*,*]
:   1   2   3   4   5   6   7    :=
1   .   0   3   0   0   0   .
2   0   .   0   .   0   .   0
3   0   0   .   0   3   0   0
4   3   .   0   .   0   8   .
5   0   0   0   0   .   0   3
6   0   .   0   0   0   .   8
7   .   0   0   .   0   0   .

 [6,2,*,*]
:   1   2   3   4   5   6   7    :=
1   .   0   0   0   0   0   .
2   0   .   0   .   0   .   0
3   0   0   .   0   0   0   0
4   0   .   0   .   0   0   .
5   0   7   0   0   .   0   0
6   0   .   0   0   7   .   0
7   .   0   0   .   0   0   .
;

################################### SCENARIO 2 #################################
CPLEX 12.6.3.0: mipdisplay=2
mipgap=1e-8
MIP Presolve modified 20 coefficients.
Reduced MIP has 89 rows, 153 columns, and 503 nonzeros.
Reduced MIP has 10 binaries, 143 generals, 0 SOSs, and 0 indicators.
Found incumbent of value 457036.650327 after 0.00 sec. (0.52 ticks)
Probing time = 0.00 sec. (0.01 ticks)
Reduced MIP has 89 rows, 153 columns, and 503 nonzeros.
Reduced MIP has 10 binaries, 143 generals, 0 SOSs, and 0 indicators.
Probing time = 0.00 sec. (0.01 ticks)
MIP emphasis: balance optimality and feasibility.
MIP search method: dynamic search.
Parallel mode: deterministic, using up to 4 threads.
Root relaxation solution time = 0.00 sec. (0.33 ticks)

        Nodes                                         Cuts/
   Node  Left     Objective  IInf  Best Integer    Best Bound    ItCnt     Gap

*     0+    0                       457036.6503    -2737.7112           100.60%
*     0+    0                       327897.6761    -2737.7112           100.83%
      0     0     3385.1644     9   327897.6761     3385.1644       38   98.97%
*     0+    0                         6741.6408     3385.1644            49.79%
      0     0     4255.4330     6     6741.6408      Cuts: 20       51   36.88%
      0     0     4465.5727    26     6741.6408      Cuts: 19       63   33.76%
      0     0     4647.6787    27     6741.6408       Cuts: 7       82   31.06%
      0     0     4902.6456    27     6741.6408      Cuts: 10       97   27.28%
      0     0     5058.8604    30     6741.6408      Cuts: 18      118   24.96%
*     0+    0                         6400.0000     5058.8604            20.96%
      0     0     5183.0669    36     6400.0000      Cuts: 19      140   19.01%
      0     0     5322.7968    30     6400.0000      Cuts: 16      149   16.83%
      0     0     5396.5319    37     6400.0000      Cuts: 17      166   15.68%
      0     0     5525.0871    16     6400.0000      Cuts: 17      178   13.67%
      0     0     5700.8352    39     6400.0000      Cuts: 10      198   10.92%
      0     0     5758.0817    33     6400.0000      Cuts: 10      207   10.03%
      0     0     5801.0319    31     6400.0000      Cuts: 15      220    9.36%
      0     0     5802.7631    28     6400.0000       Cuts: 7      225    9.33%
      0     0     5812.2428    43     6400.0000       Cuts: 7      238    9.18%
      0     0     5841.9279    33     6400.0000      Cuts: 17      251    8.72%
      0     0     5848.3890    39     6400.0000       Cuts: 6      258    8.62%
      0     0     5871.3486    33     6400.0000   ZeroHalf: 8      269    8.26%
      0     0     5910.5189    29     6400.0000      Cuts: 14      274    7.65%
      0     0     5911.5520    33     6400.0000       Cuts: 5      277    7.63%
      0     0     5912.0642    34     6400.0000       Cuts: 3      280    7.62%
      0     0        cutoff           6400.0000     6400.0000      280    0.00%
Elapsed time = 0.05 sec. (18.40 ticks, tree = 0.01 MB)

Flow cuts applied:  4
Mixed integer rounding cuts applied:  10
Flow path cuts applied:  1
Zero-half cuts applied:  6
Multi commodity flow cuts applied:  2

Root node processing (before b&c):
  Real time             =    0.05 sec. (18.41 ticks)
Parallel b&c, 4 threads:
  Real time             =    0.00 sec. (0.00 ticks)
  Sync time (average)   =    0.00 sec.
  Wait time (average)   =    0.00 sec.
                          ------------
Total (root+branch&cut) =    0.05 sec. (18.41 ticks)
CPLEX 12.6.3.0: optimal integer solution; objective 6400
280 MIP simplex iterations
0 branch-and-bound nodes
No basis.

Number of reloading buildings at each station:
x_num_reload_bldg [*] :=
1  2
2  3
3  2
4  4
5  2
6  2
7  3
;

Line exists between stations i and j:
x_line_exist :=
1 2   1
1 3   1
1 4   1
1 5   0
1 6   0
2 3   0
2 5   1
2 7   0
3 4   0
3 5   1
3 6   0
3 7   0
4 5   0
4 6   1
5 6   0
5 7   1
6 7   1
;

Number of tracks from station i to station j:
x_num_tracks [*,*]
:   1   2   3   4   5   6   7    :=
1   .   1   1   0   0   0   .
2   0   .   0   .   0   .   0
3   0   0   .   0   1   0   0
4   1   .   0   .   0   1   .
5   0   1   0   0   .   0   1
6   0   .   0   0   0   .   1
7   .   0   0   .   0   0   .
;

Number of units of shipment from station s to station d that go on arc (i,j):
x_num_units [3,2,*,*]
:   1   2   3   4   5   6   7    :=
1   .   0   0   0   0   0   .
2   0   .   0   .   0   .   0
3   0   0   .   0   3   0   0
4   0   .   0   .   0   0   .
5   0   3   0   0   .   0   0
6   0   .   0   0   0   .   0
7   .   0   0   .   0   0   .

 [4,2,*,*]
:   1   2   3   4   5   6   7    :=
1   .   3   6   0   0   0   .
2   0   .   0   .   0   .   0
3   0   0   .   0   6   0   0
4   9   .   0   .   0   0   .
5   0   6   0   0   .   0   0
6   0   .   0   0   0   .   0
7   .   0   0   .   0   0   .

 [4,7,*,*]
:   1   2   3   4   5   6    7     :=
1   .   0   1   0   0    0   .
2   0   .   0   .   0   .     0
3   0   0   .   0   1    0    0
4   1   .   0   .   0   10   .
5   0   0   0   0   .    0    1
6   0   .   0   0   0   .    10
7   .   0   0   .   0    0   .
;

################################### SCENARIO 3 #################################
CPLEX 12.6.3.0: mipdisplay=2
mipgap=1e-8
MIP Presolve modified 20 coefficients.
Reduced MIP has 96 rows, 187 columns, and 639 nonzeros.
Reduced MIP has 10 binaries, 177 generals, 0 SOSs, and 0 indicators.
Found incumbent of value 595036.650327 after 0.00 sec. (0.65 ticks)
Probing time = 0.00 sec. (0.02 ticks)
Reduced MIP has 96 rows, 187 columns, and 639 nonzeros.
Reduced MIP has 10 binaries, 177 generals, 0 SOSs, and 0 indicators.
Probing time = 0.00 sec. (0.02 ticks)
MIP emphasis: balance optimality and feasibility.
MIP search method: dynamic search.
Parallel mode: deterministic, using up to 4 threads.
Root relaxation solution time = 0.02 sec. (0.45 ticks)

        Nodes                                         Cuts/
   Node  Left     Objective  IInf  Best Integer    Best Bound    ItCnt     Gap

*     0+    0                       595036.6503    -3737.7112           100.63%
*     0+    0                       476458.3025    -3737.7112           100.78%
*     0+    0                       385458.3025    -3737.7112           100.97%
      0     0     3255.7359    19   385458.3025     3255.7359       49   99.16%
*     0+    0                        11570.4375     3255.7359            71.86%
      0     0     4200.4609    52    11570.4375      Cuts: 22       81   63.70%
      0     0     4691.5577    61    11570.4375      Cuts: 34      126   59.45%
*     0+    0                        10378.6942     4691.5577            54.80%
      0     0     4883.8954    55    10378.6942      Cuts: 28      173   52.94%
      0     0     5136.2180    65    10378.6942      Cuts: 24      204   50.51%
      0     0     5510.0731    53    10378.6942      Cuts: 19      238   46.91%
*     0+    0                         9819.6772     5510.0731            43.89%
      0     0     5545.2626    67     9819.6772       Cuts: 7      255   43.53%
      0     0     5555.6090    47     9819.6772      Cuts: 26      279   43.42%
      0     0     5570.6947    54     9819.6772        MCF: 2      284   43.27%
      0     0     5576.9137    60     9819.6772       Cuts: 7      296   43.21%
      0     0     5578.2965    57     9819.6772   ZeroHalf: 1      297   43.19%
      0     0     5578.2965    57     9819.6772       Cuts: 3      299   43.19%
*     0+    0                         6566.1238     5578.2965            15.04%
      0     0        cutoff           6566.1238     6566.1238      299    0.00%
Elapsed time = 0.09 sec. (24.58 ticks, tree = 0.01 MB)

Flow cuts applied:  10
Mixed integer rounding cuts applied:  14
Flow path cuts applied:  1
Zero-half cuts applied:  3
Multi commodity flow cuts applied:  8
Lift and project cuts applied:  6

Root node processing (before b&c):
  Real time             =    0.09 sec. (24.58 ticks)
Parallel b&c, 4 threads:
  Real time             =    0.00 sec. (0.00 ticks)
  Sync time (average)   =    0.00 sec.
  Wait time (average)   =    0.00 sec.
                          ------------
Total (root+branch&cut) =    0.09 sec. (24.58 ticks)
CPLEX 12.6.3.0: optimal integer solution; objective 6566.123776
299 MIP simplex iterations
0 branch-and-bound nodes
No basis.

Number of reloading buildings at each station:
x_num_reload_bldg [*] :=
1  1
2  1
3  3
4  3
5  2
6  4
7  3
;

Line exists between stations i and j:
x_line_exist :=
1 2   0
1 3   1
1 4   1
1 5   0
1 6   0
2 3   0
2 5   1
2 7   0
3 4   0
3 5   1
3 6   1
3 7   0
4 5   0
4 6   1
5 6   0
5 7   1
6 7   1
;

Number of tracks from station i to station j:
x_num_tracks [*,*]
:   1   2   3   4   5   6   7    :=
1   .   0   0   0   0   0   .
2   0   .   0   .   0   .   0
3   1   0   .   0   1   0   0
4   1   .   0   .   0   2   .
5   0   1   1   0   .   0   0
6   0   .   1   0   0   .   2
7   .   0   0   .   1   0   .
;

Number of units of shipment from station s to station d that go on arc (i,j):
x_num_units [3,2,*,*]
:   1   2   3   4   5   6   7    :=
1   .   0   0   0   0   0   .
2   0   .   0   .   0   .   0
3   0   0   .   0   3   0   0
4   0   .   0   .   0   0   .
5   0   3   0   0   .   0   0
6   0   .   0   0   0   .   0
7   .   0   0   .   0   0   .

 [4,7,*,*]
:   1   2   3   4   5   6    7     :=
1   .   0   0   0   0    0   .
2   0   .   0   .   0   .     0
3   0   0   .   0   0    0    0
4   0   .   0   .   0   11   .
5   0   0   0   0   .    0    0
6   0   .   0   0   0   .    11
7   .   0   0   .   0    0   .

 [6,3,*,*]
:   1   2   3   4   5   6   7    :=
1   .   0   0   0   0   0   .
2   0   .   0   .   0   .   0
3   0   0   .   0   0   0   0
4   0   .   0   .   0   0   .
5   0   0   0   0   .   0   0
6   0   .   8   0   0   .   0
7   .   0   0   .   0   0   .

 [7,1,*,*]
:   1   2   3   4   5   6   7    :=
1   .   0   0   0   0   0   .
2   0   .   0   .   0   .   0
3   4   0   .   0   0   0   0
4   0   .   0   .   0   0   .
5   0   0   4   0   .   0   0
6   0   .   0   0   0   .   0
7   .   0   0   .   4   0   .
;

